nrDays = 7;
nrWeeks = 5;
slotsPerDay = 288;

nrClasses = 2;
nrStudents = 1; %temporary
nrRooms = 2;

% array giving the number of possible time options for each class
classes_options = [3,2];

% array giving the index of each class in the class_week array
classes_idx = [1,4];

% possible weeks
classes_weeks_input = 
  [|false,	false,	false,	true,	true,		%class1
	|	false,	true,	true,	false,	false,	%class1
	|	true,	true,	true,	false,	false,	%class1
	|	false,	true,	true,	true,	false,	%class2
	|	false,	false,	false,	true,	true,	%class2
	|];

% possible days
classes_days_input = 
  [|true,	true,	true,	true,	true,	true,	true,	    	%class1
	|	true,	true,	true,	true,	true,	true,	true,	%class1
	|	true,	true,	true,	true,	true,	true,	true,	%class1
	|	true,	true,	true,	true,	true,	true,	true,	%class2
	|	true,	true,	true,	true,	true,	true,	true,	%class2
	|];

classes_slots_input = 
  [|90,	20
	|	90,	20
	|	90,	20
	|	90,	20
	|	90,	20
	|];

classes_penalties_input = [1,2,3,4,5];

% array giving the number of room options for each class
classes_rooms_cnt = [2,2];

% array giving the index of each class in the class_room array
classes_rooms_idx = [1,3];

% options penalty (first value is the class index, second is the associated penalty)
classes_rooms_input = 
  [|1,1
  |2,1
  |1,1
  |2,1
  |];

% array giving the number of unavailabilities per room
rooms_unav_cnt = [0,0,1];

% array giving the index of each room in the unavailabilities array
rooms_unav_idx = [1,1,0];

room_capacities_input = [10,10];

% possible weeks
rooms_unav_weeks_input = [];

% possible days
rooms_unav_days_input = [];

% start and duration of the class
rooms_unav_slots_input = [];

% traveltime adjacency matrix
travel_adj_mat_input = 
	[|1,1
	 |1,1
	 |];



